(set-logic QF_S)
(declare-fun var0 () String)
(declare-fun var1 () String)
(declare-fun var2 () String)
(declare-fun var3 () String)
(declare-fun var4 () Int)
(declare-fun var5 () Int)
(declare-fun var6 () Int)
(declare-fun var7 () Int)
(assert (>= (str.to.int var0) (str.to.int var1)))
(assert (str.contains var2 var3))
(assert (str.suffixof (str.replace (str.at var2 var4) (str.at var2 var5) (str.replace "u(LyDh" var0 var3)) (str.substr var3 var6 var7)))
(assert (str.prefixof "vu3!" var1))
(check-sat)